data;

param n:=21;
param p:=3;
param r:=[1] 0 [2] 2 [3] 0 [4] 2 [5] 11 [6] 4 [7] 9 [8] 20 [9] 20 [10] 22 [11] 20 [12] 19 [13] 20 [14] 5 [15] 36 [16] 3 [17] 31 [18] 27 [19] 47 [20] 35 [21] 53 ;
param w:=[1] 54 [2] 94 [3] 34 [4] 84 [5] 72 [6] 2 [7] 33 [8] 3 [9] 10 [10] 65 [11] 76 [12] 52 [13] 12 [14] 85 [15] 76 [16] 17 [17] 37 [18] 70 [19] 14 [20] 76 [21] 37 ;

end;
